nServices=10;
nDrivers=10;
nBuses=10;
startingTime=[19 14 12 28 113 199 142 95 1 31];
durationTime=[14 29 25 29 17 18 17 30 16 22];
durationDist=[30 30 56 30 55 22 24 35 21 59];
passangers=[9 14 15 22 10 9 7 21 5 4];
capacity=[30 30 10 27 18 29 24 21 23 14];
costTime=[9 9 9 7 9 7 6 7 9 9];
costDist=[2 5 5 4 5 2 6 6 5 2];
maxTime=[49 39 25 47 23 31 37 49 41 27];
costBM=[7 7 8 8 5 6 5 8 6 5];
costEM=[8 12 9 8 10 9 11 9 11 12];
BM=[17 12 13 15 12 17 18 14 17 10];
